(set-logic HORN)
(declare-datatypes ((LstI17 0))
  (((nilI17) (consI17 (headI17 Int) (tailI17 LstI17))))) ; [] | (n :: rest)
(declare-fun %%Merge (LstI17 LstI17 LstI17) Bool)
(declare-fun %f2 (Bool LstI17 LstI17 LstI17) Bool)
(declare-fun %drop_r (Bool LstI17) Bool)
(declare-fun %send_fun (Bool LstI17 Int) Bool)
(declare-fun %fail (Bool) Bool)
(declare-fun %%Sorted (LstI17) Bool)
(declare-fun %f1 (Bool LstI17 LstI17) Bool)
(declare-fun %unit (Bool) Bool)
(declare-fun %f3 (Bool LstI17 LstI17) Bool)
(declare-fun %entry (Bool) Bool)
(declare-fun %assert (Bool Int) Bool)
(declare-fun %drop_s (Bool LstI17) Bool)
(declare-fun %f5 (Bool LstI17 LstI17 Int) Bool)
(declare-fun %drop_s_r (Bool LstI17 LstI17) Bool)
(assert (forall ((%l LstI17))
    (=> true
        (%%Merge %l nilI17 %l))))
(assert (forall ((%l LstI17))
    (=> true
        (%%Merge nilI17 %l %l))))
(assert (forall ((%l1 LstI17) (%l2 LstI17) (%l3 LstI17) (%l1tail LstI17) (%l3tail LstI17) (%p Int))
    (=> (and (%%Merge %l1tail %l2 %l3tail)
             (= %l1 (consI17 %p %l1tail))
             (= %l3 (consI17 %p %l3tail)))
        (%%Merge %l1 %l2 %l3))))
(assert (forall ((%l1 LstI17) (%l2 LstI17) (%l3 LstI17) (%l2tail LstI17) (%l3tail LstI17) (%p Int))
    (=> (and (%%Merge %l1 %l2tail %l3tail)
             (= %l2 (consI17 %p %l2tail))
             (= %l3 (consI17 %p %l3tail)))
        (%%Merge %l1 %l2 %l3))))
(assert (forall ((%s LstI17) (%%t Int) (%%b Bool) (%v Int))
    (=> (and (= %s nilI17))
        (%send_fun false %s %v))))
(assert (forall ((%s LstI17) (%%t Int) (%%b Bool) (%v Int) (%s%0 LstI17))
    (=> (and (%drop_s %%b %s%0)
             (= %s (consI17 %v %s%0)))
        (%send_fun %%b %s %v))))
(assert (forall ((%%b Bool) (%%t Int))
    (=> true
        (%entry false))))
(assert (forall ((%s1 LstI17) (%%b Bool) (%%t Int) (%r LstI17))
    (=> (and (%f1 %%b %s1 %r)
             (= %r %s1))
        (%entry %%b))))
(assert (forall ((%cond Int) (%%b Bool) (%%t Int))
    (=> true
        (%assert false %cond))))
(assert (forall ((%cond Int) (%%b Bool) (%%t Int))
    (=> (and (%unit %%b)
             (not (= %cond 0)))
        (%assert %%b %cond))))
(assert (forall ((%cond Int) (%%b Bool) (%%t Int))
    (=> (and (%fail %%b)
             (= %cond 0))
        (%assert %%b %cond))))
(assert (forall ((%s LstI17) (%%b Bool) (%%t Int))
    (=> (and (= %s nilI17))
        (%drop_s false %s))))
(assert (forall ((%s LstI17) (%%b Bool) (%%t Int))
    (=> (and (= %%b false)
             (= %s nilI17))
        (%drop_s %%b %s))))
(assert (forall ((%s LstI17) (%%b Bool) (%%t Int) (%r LstI17))
    (=> (and (= %s nilI17))
        (%drop_s_r false %s %r))))
(assert (forall ((%s LstI17) (%%b Bool) (%%t Int) (%r LstI17))
    (=> (and (= %%b false)
             (= %s nilI17))
        (%drop_s_r %%b %s %r))))
(assert (forall ((%s1 LstI17) (%%b Bool) (%%t Int) (%r LstI17))
    (=> (and (= %s1 nilI17))
        (%f1 false %s1 %r))))
(assert (forall ((%s1 LstI17) (%%b Bool) (%%t Int) (%r LstI17) (%s2 LstI17) (%s1%1 LstI17))
    (=> (and (%%Merge %s2 %s1%1 %s1)
             (%f2 %%b %s1%1 %s2 %r))
        (%f1 %%b %s1 %r))))
(assert (forall ((%recv1 Int) (%s LstI17) (%%b Bool) (%%t Int) (%r LstI17))
    (=> (and (= %s nilI17))
        (%f5 false %s %r %recv1))))
(assert (forall ((%recv1 Int) (%s LstI17) (%%b Bool) (%%t Int) (%r LstI17) (%%b%2 Bool) (%%b%3 Bool))
    (=> (and (%drop_s_r %%b%2 %s %r)
             (%assert %%b%3 (ite (= %recv1 10) 1 0))
             (= %%b (or %%b%2 %%b%3)))
        (%f5 %%b %s %r %recv1))))
(assert (forall ((%%b Bool) (%%t Int))
    (=> true
        (%unit false))))
(assert (forall ((%%b Bool) (%%t Int))
    (=> (and (= %%b false))
        (%unit %%b))))
(assert (forall ((%s LstI17) (%%b Bool) (%%t Int) (%r LstI17))
    (=> (and (= %s nilI17))
        (%f3 false %s %r))))
(assert (forall ((%%t%5 Int) (%recv1 Int) (%%t%4 Int) (%r LstI17) (%s LstI17) (%%b Bool) (%%t Int) (%r%6 LstI17))
    (=> (and (= %r nilI17)
             (= %%b false))
        (%f3 %%b %s %r))))
(assert (forall ((%%t%5 Int) (%recv1 Int) (%%t%4 Int) (%r LstI17) (%s LstI17) (%%b Bool) (%%t Int) (%r%6 LstI17))
    (=> (and (%f5 %%b %s %r%6 %recv1)
             (= %r (consI17 %recv1 %r%6)))
        (%f3 %%b %s %r))))
(assert (forall ((%r LstI17) (%s2 LstI17) (%s1 LstI17) (%%b Bool) (%%t Int))
    (=> (and (= %s1 nilI17)
             (= %s2 nilI17))
        (%f2 false %s1 %s2 %r))))
(assert (forall ((%%b%8 Bool) (%r LstI17) (%s2 LstI17) (%s1 LstI17) (%%b Bool) (%%t Int) (%%b%7 Bool))
    (=> (and (%send_fun %%b%7 %s1 10)
             (%f3 %%b%8 %s2 %r)
             (= %%b (or %%b%7 %%b%8)))
        (%f2 %%b %s1 %s2 %r))))
(assert (forall ((%r LstI17) (%%b Bool) (%%t Int))
    (=> true
        (%drop_r false %r))))
(assert (forall ((%r LstI17) (%%b Bool) (%%t Int))
    (=> (and (= %%b false))
        (%drop_r %%b %r))))
(assert (forall ((%%b Bool) (%%t Int))
    (=> true
        (%fail false))))
(assert (forall ((%%b Bool) (%%t Int))
    (=> (and (= %%b true))
        (%fail %%b))))
(assert (forall ((%%t Int))
    (=> (and (%entry true))
        false)))
(check-sat)
